data;

param order := 3;
param n := 9;
param givens :  1 2 3 4 5 6 7 8 9 :=
                1 . 5 . . 4 . . . 6 
                2 . 4 6 7 . 8 2 5 . 
                3 . . . 9 6 . . 3 . 
                4 6 8 5 . . . . 4 . 
                5 . 3 . . . 9 6 2 . 
                6 9 . . 4 5 . . 1 . 
                7 5 9 3 2 . . . 6 . 
                8 7 1 . . . . . . 2 
                9 8 6 2 5 9 . . . 3 
;

end;
